3437137
50,83,58,62,22,91,79,82,108,97,100,40,37,65,76,36,9,23,90,88,98,71,74,56,26,7,38,11,41,17,6,59,32,77,105,35,64,87,86,52,16,101,49,75,18,72,61,20,95,70,30,25,8,0,4,21,53,57,63,47,99,55,2,106,28,15,80,45,93,1,66,46,39,27,54,13,85,68,69,67,12,104,48,10,96,14,103,107,92,102,78,3,73,43,51,81,89,34,44,33,24,5,29,60,42,19,84,94,31
